(set-logic HORN)
(declare-fun k_22 (Int Int Int Int Int (Array Int Int)) Bool)
(declare-fun k_24 (Int Int Int Int (Array Int Int)) Bool)
(declare-fun k_29 (Int Int Int Int Int Int Int (Array Int Int)) Bool)
(assert (forall ((lq_anf__dbx Int)
         (EQ_6U Int)
         (GT_6W Int)
         (LT_6S Int)
         (lq_anf__dbw Int)
         (lq_anf__dby Int)
         (VV_F1 Int)
         (cmp (Array Int Int)))
  (=> (and (= (select cmp EQ_6U) EQ_6U)
           (= (select cmp GT_6W) GT_6W)
           (= (select cmp LT_6S) LT_6S)
           (= lq_anf__dbw 1)
           (= lq_anf__dbx 2)
           (= lq_anf__dby 3)
           true)
      (k_24 EQ_6U GT_6W LT_6S VV_F1 cmp))))
(assert (forall ((lq_anf__dbx Int)
         (EQ_6U Int)
         (GT_6W Int)
         (LT_6S Int)
         (VV_F2 Int)
         (lq_anf__dbw Int)
         (VV_31 Int)
         (lq_anf__dby Int)
         (cmp (Array Int Int)))
  (=> (and (= (select cmp EQ_6U) EQ_6U)
           (= (select cmp GT_6W) GT_6W)
           (= (select cmp LT_6S) LT_6S)
           (= lq_anf__dbw 1)
           (= lq_anf__dbx 2)
           (= lq_anf__dby 3)
           (k_29 EQ_6U
                 GT_6W
                 LT_6S
                 VV_F2
                 lq_anf__dbw
                 lq_anf__dbx
                 lq_anf__dby
                 cmp)
           true)
      (k_22 EQ_6U GT_6W LT_6S VV_F2 VV_31 cmp))))
(assert (forall ((lq_anf__dbx Int)
         (VV_F3 Int)
         (EQ_6U Int)
         (GT_6W Int)
         (LT_6S Int)
         (lq_anf__dbw Int)
         (lq_anf__dby Int)
         (cmp (Array Int Int)))
  (=> (and (= (select cmp EQ_6U) EQ_6U)
           (= (select cmp GT_6W) GT_6W)
           (= (select cmp LT_6S) LT_6S)
           (= lq_anf__dbw 1)
           (= lq_anf__dbx 2)
           (= lq_anf__dby 3)
           (= VV_F3 3)
           (= VV_F3 lq_anf__dby)
           true)
      (k_29 EQ_6U GT_6W LT_6S VV_F3 lq_anf__dbw lq_anf__dbx lq_anf__dby cmp))))
(assert (forall ((lq_anf__dbx Int)
         (EQ_6U Int)
         (VV_F4 Int)
         (GT_6W Int)
         (LT_6S Int)
         (lq_anf__dbw Int)
         (lq_anf__dby Int)
         (cmp (Array Int Int)))
  (=> (and (= (select cmp EQ_6U) EQ_6U)
           (= (select cmp GT_6W) GT_6W)
           (= (select cmp LT_6S) LT_6S)
           (= lq_anf__dbw 1)
           (= lq_anf__dbx 2)
           (= lq_anf__dby 3)
           (= VV_F4 2)
           (= VV_F4 lq_anf__dbx)
           true)
      (k_29 EQ_6U GT_6W LT_6S VV_F4 lq_anf__dbw lq_anf__dbx lq_anf__dby cmp))))
(assert (forall ((lq_anf__dbx Int)
         (EQ_6U Int)
         (GT_6W Int)
         (LT_6S Int)
         (lq_anf__dbw Int)
         (lq_anf__dby Int)
         (VV_F5 Int)
         (cmp (Array Int Int)))
  (=> (and (= (select cmp EQ_6U) EQ_6U)
           (= (select cmp GT_6W) GT_6W)
           (= (select cmp LT_6S) LT_6S)
           (= lq_anf__dbw 1)
           (= lq_anf__dbx 2)
           (= lq_anf__dby 3)
           (= VV_F5 1)
           (= VV_F5 lq_anf__dbw)
           true)
      (k_29 EQ_6U GT_6W LT_6S VV_F5 lq_anf__dbw lq_anf__dbx lq_anf__dby cmp))))

(check-sat)
